time=20;
op_count=4;
izd_count=5;

op_len = [4, 2, 1, 3];
op_in = array2d(1..op_count, 1..izd_count,
   [0, 3, 1, 1, 0,
   0, 0, 0, 0, 1,
   0, 6, 0, 0, 0,
   0, 0, 0, 0, 1
   ]);
   
op_out = array2d(1..op_count, 1..izd_count, [
    1, 0, 0, 0, 0,
    0, 3, 0, 0, 0,
    0, 0, 1, 0, 0,
    0, 0, 0, 1, 0
]);

mach_count = 2;
mach = array2d(1..mach_count, 1..op_count, [
    1, 0, 0, 0,
    0, 1, 1, 1
]);

delivery = array2d(1..time, 1..izd_count, [
    0, 0, 0, 0, 0,
    0, 0, 0, 0, 0,
    0, 0, 0, 0, 0,
    0, 0, 0, 0, 0,
    0, 0, 0, 0, 0,
    0, 0, 0, 0, 0,
    0, 0, 0, 0, 0,
    0, 0, 0, 0, 0,
    0, 0, 0, 0, 0,
    0, 0, 0, 0, 0,
    0, 0, 0, 0, 0,
    0, 0, 0, 0, 0,
    0, 0, 0, 0, 0,
    0, 0, 0, 0, 0,
    0, 0, 0, 0, 0,
    0, 0, 0, 0, 0,
    0, 0, 0, 0, 0,
    0, 0, 0, 0, 0,
    0, 0, 0, 0, 0,
    1, 0, 0, 0, 0
]);
